c K to QBF translator. (C)Rice University.
c From input file 5-19.lwb
p cnf 928 2413
e 928 1 927 0
a 214 0
e 260 926 7 6 5 4 3 2 263 925 0
a 215 216 0
e 266 924 17 16 15 14 13 12 11 10 9 8 269 275 278 281 283 284 923 0
a 217 218 0
e 288 922 27 26 25 24 23 22 21 20 19 18 291 297 300 303 306 309 311 313 314 921 0
a 219 220 0
e 318 920 37 36 35 34 33 32 31 30 29 28 321 327 330 333 336 339 341 343 344 919 0
a 221 222 0
e 348 918 47 46 45 44 43 42 41 40 39 38 351 357 360 363 366 369 371 373 374 917 0
a 223 224 0
e 378 916 57 56 55 54 53 52 51 50 49 48 381 387 390 393 396 399 401 403 404 915 0
a 225 226 0
e 408 914 67 66 65 64 63 62 61 60 59 58 411 417 420 423 426 429 431 433 434 913 0
a 227 228 0
e 438 912 77 76 75 74 73 72 71 70 69 68 441 447 450 453 456 459 461 463 464 911 0
a 229 230 0
e 468 910 87 86 85 84 83 82 81 80 79 78 471 477 480 483 486 489 491 493 494 909 0
a 231 232 0
e 498 908 95 94 93 92 91 90 89 88 501 506 509 512 515 518 520 522 523 907 0
a 233 234 0
e 526 906 102 101 100 99 98 97 96 529 534 537 540 542 544 545 905 0
a 235 236 0
e 548 904 112 111 110 109 108 107 106 105 104 103 551 557 560 563 565 566 903 0
a 237 238 0
e 570 902 122 121 120 119 118 117 116 115 114 113 573 579 582 585 588 591 593 595 596 901 0
a 239 240 0
e 600 900 132 131 130 129 128 127 126 125 124 123 603 609 612 615 618 621 623 625 626 899 0
a 241 242 0
e 630 898 142 141 140 139 138 137 136 135 134 133 633 639 642 645 648 651 653 655 656 897 0
a 243 244 0
e 660 896 152 151 150 149 148 147 146 145 144 143 663 669 672 675 678 681 683 685 686 895 0
a 245 246 0
e 690 894 162 161 160 159 158 157 156 155 154 153 693 699 702 705 708 711 713 715 716 893 0
a 247 248 0
e 720 892 172 171 170 169 168 167 166 165 164 163 723 729 732 735 738 741 743 745 746 891 0
a 249 250 0
e 750 890 180 179 178 177 176 175 174 173 753 758 761 764 767 770 772 774 775 889 0
a 251 252 0
e 778 888 192 191 190 189 188 187 186 185 184 183 182 181 781 788 791 794 797 799 800 887 0
a 253 254 0
e 804 886 201 200 199 198 197 196 195 194 193 807 810 813 816 819 822 825 828 831 833 834 885 0
a 255 256 0
e 837 884 207 206 205 204 203 202 840 844 847 850 853 856 858 859 883 0
a 257 258 0
e 862 882 211 210 209 208 865 868 871 873 874 881 0
a 259 0
e 875 880 213 212 877 878 879 876 872 869 870 867 866 864 863 860 861 857 854 855 852 851 849 848 846 845 842 843 841 839 838 835 836 832 829 830 826 827 824 823 821 820 818 817 815 814 812 811 809 808 806 805 801 802 803 798 795 796 793 792 790 789 783 787 784 785 786 782 780 779 776 777 773 771 768 769 766 765 763 762 760 759 755 757 756 754 752 751 747 748 749 744 742 739 740 737 736 734 733 731 730 725 728 726 727 724 722 721 717 718 719 714 712 709 710 707 706 704 703 701 700 695 698 696 697 694 692 691 687 688 689 684 682 679 680 677 676 674 673 671 670 665 668 666 667 664 662 661 657 658 659 654 652 649 650 647 646 644 643 641 640 635 638 636 637 634 632 631 627 628 629 624 622 619 620 617 616 614 613 611 610 605 608 606 607 604 602 601 597 598 599 594 592 589 590 587 586 584 583 581 580 575 578 576 577 574 572 571 567 568 569 564 561 562 559 558 553 556 554 555 552 550 549 546 547 543 541 539 538 536 535 531 533 532 530 528 527 524 525 521 519 516 517 514 513 511 510 508 507 503 505 504 502 500 499 495 496 497 492 490 487 488 485 484 482 481 479 478 473 476 474 475 472 470 469 465 466 467 462 460 457 458 455 454 452 451 449 448 443 446 444 445 442 440 439 435 436 437 432 430 427 428 425 424 422 421 419 418 413 416 414 415 412 410 409 405 406 407 402 400 397 398 395 394 392 391 389 388 383 386 384 385 382 380 379 375 376 377 372 370 367 368 365 364 362 361 359 358 353 356 354 355 352 350 349 345 346 347 342 340 337 338 335 334 332 331 329 328 323 326 324 325 322 320 319 315 316 317 312 310 307 308 305 304 302 301 299 298 293 296 294 295 292 290 289 285 286 287 282 279 280 277 276 271 274 272 273 270 268 267 264 265 262 261 0
928  0 
928 -927 -1  0 
927 -928  0 
1 -928  0 
-927 260 926  0 
-260 927  0 
-926 927  0 
-260 -214 -1  0 
214 260  0 
1 260  0 
926 -263 -925  0 
263 -926  0 
925 -926  0 
-263 -214 262  0 
214 263  0 
-262 263  0 
262 -5 -2 -261  0 
5 -262  0 
2 -262  0 
261 -262  0 
-261 3 4 7 6  0 
-3 261  0 
-4 261  0 
-7 261  0 
-6 261  0 
-925 266 924  0 
-266 925  0 
-924 925  0 
266 -264 -265  0 
264 -266  0 
265 -266  0 
-264 -3 215 -216  0 
3 264  0 
-215 264  0 
216 264  0 
-265 -2 -215 -216  0 
2 265  0 
215 265  0 
216 265  0 
924 -269 -275 -278 -281 -283 -284 -923  0 
269 -924  0 
275 -924  0 
278 -924  0 
281 -924  0 
283 -924  0 
284 -924  0 
923 -924  0 
-269 268 17  0 
-268 269  0 
-17 269  0 
-268 -6 267  0 
6 268  0 
-267 268  0 
267 3 2  0 
-3 -267  0 
-2 -267  0 
-275 271 274  0 
-271 275  0 
-274 275  0 
-271 -5 270  0 
5 271  0 
-270 271  0 
270 3 2  0 
-3 -270  0 
-2 -270  0 
274 -14 -272 -273  0 
14 -274  0 
272 -274  0 
273 -274  0 
-272 9 12  0 
-9 272  0 
-12 272  0 
-273 10 11 17 15  0 
-10 273  0 
-11 273  0 
-17 273  0 
-15 273  0 
-278 277 9  0 
-277 278  0 
-9 278  0 
-277 -4 276  0 
4 277  0 
-276 277  0 
276 3 2  0 
-3 -276  0 
-2 -276  0 
-281 279 280  0 
-279 281  0 
-280 281  0 
-279 215 -216  0 
-215 279  0 
216 279  0 
280 -13 -16  0 
13 -280  0 
16 -280  0 
-283 282 8  0 
-282 283  0 
-8 283  0 
-282 -215 -216  0 
215 282  0 
216 282  0 
-284 -16 -17  0 
16 284  0 
17 284  0 
-923 288 922  0 
-288 923  0 
-922 923  0 
288 -285 -286 -287  0 
285 -288  0 
286 -288  0 
287 -288  0 
-285 -10 -217 218  0 
10 285  0 
217 285  0 
-218 285  0 
-286 -9 217 -218  0 
9 286  0 
-217 286  0 
218 286  0 
-287 -8 -217 -218  0 
8 287  0 
217 287  0 
218 287  0 
922 -291 -297 -300 -303 -306 -309 -311 -313 -314 -921  0 
291 -922  0 
297 -922  0 
300 -922  0 
303 -922  0 
306 -922  0 
309 -922  0 
311 -922  0 
313 -922  0 
314 -922  0 
921 -922  0 
-291 290 27  0 
-290 291  0 
-27 291  0 
-290 -15 289  0 
15 290  0 
-289 290  0 
289 10 9 8  0 
-10 -289  0 
-9 -289  0 
-8 -289  0 
-297 293 296  0 
-293 297  0 
-296 297  0 
-293 -14 292  0 
14 293  0 
-292 293  0 
292 10 9 8  0 
-10 -292  0 
-9 -292  0 
-8 -292  0 
296 -24 -294 -295  0 
24 -296  0 
294 -296  0 
295 -296  0 
-294 19 22  0 
-19 294  0 
-22 294  0 
-295 20 21 27 25  0 
-20 295  0 
-21 295  0 
-27 295  0 
-25 295  0 
-300 299 26 25  0 
-299 300  0 
-26 300  0 
-25 300  0 
-299 -13 298  0 
13 299  0 
-298 299  0 
298 10 9 8  0 
-10 -298  0 
-9 -298  0 
-8 -298  0 
-303 302 25  0 
-302 303  0 
-25 303  0 
-302 -12 301  0 
12 302  0 
-301 302  0 
301 10 9 8  0 
-10 -301  0 
-9 -301  0 
-8 -301  0 
-306 305 19  0 
-305 306  0 
-19 306  0 
-305 -11 304  0 
11 305  0 
-304 305  0 
304 10 9 8  0 
-10 -304  0 
-9 -304  0 
-8 -304  0 
-309 307 308  0 
-307 309  0 
-308 309  0 
-307 -217 218  0 
217 307  0 
-218 307  0 
308 -23 -26  0 
23 -308  0 
26 -308  0 
-311 310 26  0 
-310 311  0 
-26 311  0 
-310 217 -218  0 
-217 310  0 
218 310  0 
-313 312 18  0 
-312 313  0 
-18 313  0 
-312 -217 -218  0 
217 312  0 
218 312  0 
-314 -26 -27  0 
26 314  0 
27 314  0 
-921 318 920  0 
-318 921  0 
-920 921  0 
318 -315 -316 -317  0 
315 -318  0 
316 -318  0 
317 -318  0 
-315 -20 -219 220  0 
20 315  0 
219 315  0 
-220 315  0 
-316 -19 219 -220  0 
19 316  0 
-219 316  0 
220 316  0 
-317 -18 -219 -220  0 
18 317  0 
219 317  0 
220 317  0 
920 -321 -327 -330 -333 -336 -339 -341 -343 -344 -919  0 
321 -920  0 
327 -920  0 
330 -920  0 
333 -920  0 
336 -920  0 
339 -920  0 
341 -920  0 
343 -920  0 
344 -920  0 
919 -920  0 
-321 320 37  0 
-320 321  0 
-37 321  0 
-320 -25 319  0 
25 320  0 
-319 320  0 
319 20 19 18  0 
-20 -319  0 
-19 -319  0 
-18 -319  0 
-327 323 326  0 
-323 327  0 
-326 327  0 
-323 -24 322  0 
24 323  0 
-322 323  0 
322 20 19 18  0 
-20 -322  0 
-19 -322  0 
-18 -322  0 
326 -34 -324 -325  0 
34 -326  0 
324 -326  0 
325 -326  0 
-324 29 32  0 
-29 324  0 
-32 324  0 
-325 30 31 37 35  0 
-30 325  0 
-31 325  0 
-37 325  0 
-35 325  0 
-330 329 36 35  0 
-329 330  0 
-36 330  0 
-35 330  0 
-329 -23 328  0 
23 329  0 
-328 329  0 
328 20 19 18  0 
-20 -328  0 
-19 -328  0 
-18 -328  0 
-333 332 35  0 
-332 333  0 
-35 333  0 
-332 -22 331  0 
22 332  0 
-331 332  0 
331 20 19 18  0 
-20 -331  0 
-19 -331  0 
-18 -331  0 
-336 335 29  0 
-335 336  0 
-29 336  0 
-335 -21 334  0 
21 335  0 
-334 335  0 
334 20 19 18  0 
-20 -334  0 
-19 -334  0 
-18 -334  0 
-339 337 338  0 
-337 339  0 
-338 339  0 
-337 -219 220  0 
219 337  0 
-220 337  0 
338 -33 -36  0 
33 -338  0 
36 -338  0 
-341 340 36  0 
-340 341  0 
-36 341  0 
-340 219 -220  0 
-219 340  0 
220 340  0 
-343 342 28  0 
-342 343  0 
-28 343  0 
-342 -219 -220  0 
219 342  0 
220 342  0 
-344 -36 -37  0 
36 344  0 
37 344  0 
-919 348 918  0 
-348 919  0 
-918 919  0 
348 -345 -346 -347  0 
345 -348  0 
346 -348  0 
347 -348  0 
-345 -30 -221 222  0 
30 345  0 
221 345  0 
-222 345  0 
-346 -29 221 -222  0 
29 346  0 
-221 346  0 
222 346  0 
-347 -28 -221 -222  0 
28 347  0 
221 347  0 
222 347  0 
918 -351 -357 -360 -363 -366 -369 -371 -373 -374 -917  0 
351 -918  0 
357 -918  0 
360 -918  0 
363 -918  0 
366 -918  0 
369 -918  0 
371 -918  0 
373 -918  0 
374 -918  0 
917 -918  0 
-351 350 47  0 
-350 351  0 
-47 351  0 
-350 -35 349  0 
35 350  0 
-349 350  0 
349 30 29 28  0 
-30 -349  0 
-29 -349  0 
-28 -349  0 
-357 353 356  0 
-353 357  0 
-356 357  0 
-353 -34 352  0 
34 353  0 
-352 353  0 
352 30 29 28  0 
-30 -352  0 
-29 -352  0 
-28 -352  0 
356 -44 -354 -355  0 
44 -356  0 
354 -356  0 
355 -356  0 
-354 39 42  0 
-39 354  0 
-42 354  0 
-355 40 41 47 45  0 
-40 355  0 
-41 355  0 
-47 355  0 
-45 355  0 
-360 359 46 45  0 
-359 360  0 
-46 360  0 
-45 360  0 
-359 -33 358  0 
33 359  0 
-358 359  0 
358 30 29 28  0 
-30 -358  0 
-29 -358  0 
-28 -358  0 
-363 362 45  0 
-362 363  0 
-45 363  0 
-362 -32 361  0 
32 362  0 
-361 362  0 
361 30 29 28  0 
-30 -361  0 
-29 -361  0 
-28 -361  0 
-366 365 39  0 
-365 366  0 
-39 366  0 
-365 -31 364  0 
31 365  0 
-364 365  0 
364 30 29 28  0 
-30 -364  0 
-29 -364  0 
-28 -364  0 
-369 367 368  0 
-367 369  0 
-368 369  0 
-367 -221 222  0 
221 367  0 
-222 367  0 
368 -43 -46  0 
43 -368  0 
46 -368  0 
-371 370 46  0 
-370 371  0 
-46 371  0 
-370 221 -222  0 
-221 370  0 
222 370  0 
-373 372 38  0 
-372 373  0 
-38 373  0 
-372 -221 -222  0 
221 372  0 
222 372  0 
-374 -46 -47  0 
46 374  0 
47 374  0 
-917 378 916  0 
-378 917  0 
-916 917  0 
378 -375 -376 -377  0 
375 -378  0 
376 -378  0 
377 -378  0 
-375 -40 -223 224  0 
40 375  0 
223 375  0 
-224 375  0 
-376 -39 223 -224  0 
39 376  0 
-223 376  0 
224 376  0 
-377 -38 -223 -224  0 
38 377  0 
223 377  0 
224 377  0 
916 -381 -387 -390 -393 -396 -399 -401 -403 -404 -915  0 
381 -916  0 
387 -916  0 
390 -916  0 
393 -916  0 
396 -916  0 
399 -916  0 
401 -916  0 
403 -916  0 
404 -916  0 
915 -916  0 
-381 380 57  0 
-380 381  0 
-57 381  0 
-380 -45 379  0 
45 380  0 
-379 380  0 
379 40 39 38  0 
-40 -379  0 
-39 -379  0 
-38 -379  0 
-387 383 386  0 
-383 387  0 
-386 387  0 
-383 -44 382  0 
44 383  0 
-382 383  0 
382 40 39 38  0 
-40 -382  0 
-39 -382  0 
-38 -382  0 
386 -54 -384 -385  0 
54 -386  0 
384 -386  0 
385 -386  0 
-384 49 52  0 
-49 384  0 
-52 384  0 
-385 50 51 57 55  0 
-50 385  0 
-51 385  0 
-57 385  0 
-55 385  0 
-390 389 56 55  0 
-389 390  0 
-56 390  0 
-55 390  0 
-389 -43 388  0 
43 389  0 
-388 389  0 
388 40 39 38  0 
-40 -388  0 
-39 -388  0 
-38 -388  0 
-393 392 55  0 
-392 393  0 
-55 393  0 
-392 -42 391  0 
42 392  0 
-391 392  0 
391 40 39 38  0 
-40 -391  0 
-39 -391  0 
-38 -391  0 
-396 395 49  0 
-395 396  0 
-49 396  0 
-395 -41 394  0 
41 395  0 
-394 395  0 
394 40 39 38  0 
-40 -394  0 
-39 -394  0 
-38 -394  0 
-399 397 398  0 
-397 399  0 
-398 399  0 
-397 -223 224  0 
223 397  0 
-224 397  0 
398 -53 -56  0 
53 -398  0 
56 -398  0 
-401 400 56  0 
-400 401  0 
-56 401  0 
-400 223 -224  0 
-223 400  0 
224 400  0 
-403 402 48  0 
-402 403  0 
-48 403  0 
-402 -223 -224  0 
223 402  0 
224 402  0 
-404 -56 -57  0 
56 404  0 
57 404  0 
-915 408 914  0 
-408 915  0 
-914 915  0 
408 -405 -406 -407  0 
405 -408  0 
406 -408  0 
407 -408  0 
-405 -50 -225 226  0 
50 405  0 
225 405  0 
-226 405  0 
-406 -49 225 -226  0 
49 406  0 
-225 406  0 
226 406  0 
-407 -48 -225 -226  0 
48 407  0 
225 407  0 
226 407  0 
914 -411 -417 -420 -423 -426 -429 -431 -433 -434 -913  0 
411 -914  0 
417 -914  0 
420 -914  0 
423 -914  0 
426 -914  0 
429 -914  0 
431 -914  0 
433 -914  0 
434 -914  0 
913 -914  0 
-411 410 67  0 
-410 411  0 
-67 411  0 
-410 -55 409  0 
55 410  0 
-409 410  0 
409 50 49 48  0 
-50 -409  0 
-49 -409  0 
-48 -409  0 
-417 413 416  0 
-413 417  0 
-416 417  0 
-413 -54 412  0 
54 413  0 
-412 413  0 
412 50 49 48  0 
-50 -412  0 
-49 -412  0 
-48 -412  0 
416 -64 -414 -415  0 
64 -416  0 
414 -416  0 
415 -416  0 
-414 59 62  0 
-59 414  0 
-62 414  0 
-415 60 61 67 65  0 
-60 415  0 
-61 415  0 
-67 415  0 
-65 415  0 
-420 419 66 65  0 
-419 420  0 
-66 420  0 
-65 420  0 
-419 -53 418  0 
53 419  0 
-418 419  0 
418 50 49 48  0 
-50 -418  0 
-49 -418  0 
-48 -418  0 
-423 422 65  0 
-422 423  0 
-65 423  0 
-422 -52 421  0 
52 422  0 
-421 422  0 
421 50 49 48  0 
-50 -421  0 
-49 -421  0 
-48 -421  0 
-426 425 59  0 
-425 426  0 
-59 426  0 
-425 -51 424  0 
51 425  0 
-424 425  0 
424 50 49 48  0 
-50 -424  0 
-49 -424  0 
-48 -424  0 
-429 427 428  0 
-427 429  0 
-428 429  0 
-427 -225 226  0 
225 427  0 
-226 427  0 
428 -63 -66  0 
63 -428  0 
66 -428  0 
-431 430 66  0 
-430 431  0 
-66 431  0 
-430 225 -226  0 
-225 430  0 
226 430  0 
-433 432 58  0 
-432 433  0 
-58 433  0 
-432 -225 -226  0 
225 432  0 
226 432  0 
-434 -66 -67  0 
66 434  0 
67 434  0 
-913 438 912  0 
-438 913  0 
-912 913  0 
438 -435 -436 -437  0 
435 -438  0 
436 -438  0 
437 -438  0 
-435 -60 -227 228  0 
60 435  0 
227 435  0 
-228 435  0 
-436 -59 227 -228  0 
59 436  0 
-227 436  0 
228 436  0 
-437 -58 -227 -228  0 
58 437  0 
227 437  0 
228 437  0 
912 -441 -447 -450 -453 -456 -459 -461 -463 -464 -911  0 
441 -912  0 
447 -912  0 
450 -912  0 
453 -912  0 
456 -912  0 
459 -912  0 
461 -912  0 
463 -912  0 
464 -912  0 
911 -912  0 
-441 440 77  0 
-440 441  0 
-77 441  0 
-440 -65 439  0 
65 440  0 
-439 440  0 
439 60 59 58  0 
-60 -439  0 
-59 -439  0 
-58 -439  0 
-447 443 446  0 
-443 447  0 
-446 447  0 
-443 -64 442  0 
64 443  0 
-442 443  0 
442 60 59 58  0 
-60 -442  0 
-59 -442  0 
-58 -442  0 
446 -74 -444 -445  0 
74 -446  0 
444 -446  0 
445 -446  0 
-444 69 72  0 
-69 444  0 
-72 444  0 
-445 70 71 77 75  0 
-70 445  0 
-71 445  0 
-77 445  0 
-75 445  0 
-450 449 76 75  0 
-449 450  0 
-76 450  0 
-75 450  0 
-449 -63 448  0 
63 449  0 
-448 449  0 
448 60 59 58  0 
-60 -448  0 
-59 -448  0 
-58 -448  0 
-453 452 75  0 
-452 453  0 
-75 453  0 
-452 -62 451  0 
62 452  0 
-451 452  0 
451 60 59 58  0 
-60 -451  0 
-59 -451  0 
-58 -451  0 
-456 455 69  0 
-455 456  0 
-69 456  0 
-455 -61 454  0 
61 455  0 
-454 455  0 
454 60 59 58  0 
-60 -454  0 
-59 -454  0 
-58 -454  0 
-459 457 458  0 
-457 459  0 
-458 459  0 
-457 -227 228  0 
227 457  0 
-228 457  0 
458 -73 -76  0 
73 -458  0 
76 -458  0 
-461 460 76  0 
-460 461  0 
-76 461  0 
-460 227 -228  0 
-227 460  0 
228 460  0 
-463 462 68  0 
-462 463  0 
-68 463  0 
-462 -227 -228  0 
227 462  0 
228 462  0 
-464 -76 -77  0 
76 464  0 
77 464  0 
-911 468 910  0 
-468 911  0 
-910 911  0 
468 -465 -466 -467  0 
465 -468  0 
466 -468  0 
467 -468  0 
-465 -70 -229 230  0 
70 465  0 
229 465  0 
-230 465  0 
-466 -69 229 -230  0 
69 466  0 
-229 466  0 
230 466  0 
-467 -68 -229 -230  0 
68 467  0 
229 467  0 
230 467  0 
910 -471 -477 -480 -483 -486 -489 -491 -493 -494 -909  0 
471 -910  0 
477 -910  0 
480 -910  0 
483 -910  0 
486 -910  0 
489 -910  0 
491 -910  0 
493 -910  0 
494 -910  0 
909 -910  0 
-471 470 87  0 
-470 471  0 
-87 471  0 
-470 -75 469  0 
75 470  0 
-469 470  0 
469 70 69 68  0 
-70 -469  0 
-69 -469  0 
-68 -469  0 
-477 473 476  0 
-473 477  0 
-476 477  0 
-473 -74 472  0 
74 473  0 
-472 473  0 
472 70 69 68  0 
-70 -472  0 
-69 -472  0 
-68 -472  0 
476 -84 -474 -475  0 
84 -476  0 
474 -476  0 
475 -476  0 
-474 79 82  0 
-79 474  0 
-82 474  0 
-475 80 81 87 85  0 
-80 475  0 
-81 475  0 
-87 475  0 
-85 475  0 
-480 479 86 85  0 
-479 480  0 
-86 480  0 
-85 480  0 
-479 -73 478  0 
73 479  0 
-478 479  0 
478 70 69 68  0 
-70 -478  0 
-69 -478  0 
-68 -478  0 
-483 482 85  0 
-482 483  0 
-85 483  0 
-482 -72 481  0 
72 482  0 
-481 482  0 
481 70 69 68  0 
-70 -481  0 
-69 -481  0 
-68 -481  0 
-486 485 79  0 
-485 486  0 
-79 486  0 
-485 -71 484  0 
71 485  0 
-484 485  0 
484 70 69 68  0 
-70 -484  0 
-69 -484  0 
-68 -484  0 
-489 487 488  0 
-487 489  0 
-488 489  0 
-487 -229 230  0 
229 487  0 
-230 487  0 
488 -83 -86  0 
83 -488  0 
86 -488  0 
-491 490 86  0 
-490 491  0 
-86 491  0 
-490 229 -230  0 
-229 490  0 
230 490  0 
-493 492 78  0 
-492 493  0 
-78 493  0 
-492 -229 -230  0 
229 492  0 
230 492  0 
-494 -86 -87  0 
86 494  0 
87 494  0 
-909 498 908  0 
-498 909  0 
-908 909  0 
498 -495 -496 -497  0 
495 -498  0 
496 -498  0 
497 -498  0 
-495 -80 -231 232  0 
80 495  0 
231 495  0 
-232 495  0 
-496 -79 231 -232  0 
79 496  0 
-231 496  0 
232 496  0 
-497 -78 -231 -232  0 
78 497  0 
231 497  0 
232 497  0 
908 -501 -506 -509 -512 -515 -518 -520 -522 -523 -907  0 
501 -908  0 
506 -908  0 
509 -908  0 
512 -908  0 
515 -908  0 
518 -908  0 
520 -908  0 
522 -908  0 
523 -908  0 
907 -908  0 
-501 500 95  0 
-500 501  0 
-95 501  0 
-500 -85 499  0 
85 500  0 
-499 500  0 
499 80 79 78  0 
-80 -499  0 
-79 -499  0 
-78 -499  0 
-506 503 505  0 
-503 506  0 
-505 506  0 
-503 -84 502  0 
84 503  0 
-502 503  0 
502 80 79 78  0 
-80 -502  0 
-79 -502  0 
-78 -502  0 
505 -92 -504  0 
92 -505  0 
504 -505  0 
-504 89 90  0 
-89 504  0 
-90 504  0 
-509 508 94 93  0 
-508 509  0 
-94 509  0 
-93 509  0 
-508 -83 507  0 
83 508  0 
-507 508  0 
507 80 79 78  0 
-80 -507  0 
-79 -507  0 
-78 -507  0 
-512 511 93  0 
-511 512  0 
-93 512  0 
-511 -82 510  0 
82 511  0 
-510 511  0 
510 80 79 78  0 
-80 -510  0 
-79 -510  0 
-78 -510  0 
-515 514 89  0 
-514 515  0 
-89 515  0 
-514 -81 513  0 
81 514  0 
-513 514  0 
513 80 79 78  0 
-80 -513  0 
-79 -513  0 
-78 -513  0 
-518 516 517  0 
-516 518  0 
-517 518  0 
-516 -231 232  0 
231 516  0 
-232 516  0 
517 -91 -94  0 
91 -517  0 
94 -517  0 
-520 519 94  0 
-519 520  0 
-94 520  0 
-519 231 -232  0 
-231 519  0 
232 519  0 
-522 521 88  0 
-521 522  0 
-88 522  0 
-521 -231 -232  0 
231 521  0 
232 521  0 
-523 -94 -95  0 
94 523  0 
95 523  0 
-907 526 906  0 
-526 907  0 
-906 907  0 
526 -524 -525  0 
524 -526  0 
525 -526  0 
-524 -89 233 -234  0 
89 524  0 
-233 524  0 
234 524  0 
-525 -88 -233 -234  0 
88 525  0 
233 525  0 
234 525  0 
906 -529 -534 -537 -540 -542 -544 -545 -905  0 
529 -906  0 
534 -906  0 
537 -906  0 
540 -906  0 
542 -906  0 
544 -906  0 
545 -906  0 
905 -906  0 
-529 528 102  0 
-528 529  0 
-102 529  0 
-528 -93 527  0 
93 528  0 
-527 528  0 
527 89 88  0 
-89 -527  0 
-88 -527  0 
-534 531 533  0 
-531 534  0 
-533 534  0 
-531 -92 530  0 
92 531  0 
-530 531  0 
530 89 88  0 
-89 -530  0 
-88 -530  0 
533 -99 -532  0 
99 -533  0 
532 -533  0 
-532 97 98 102 100  0 
-97 532  0 
-98 532  0 
-102 532  0 
-100 532  0 
-537 536 101 100  0 
-536 537  0 
-101 537  0 
-100 537  0 
-536 -91 535  0 
91 536  0 
-535 536  0 
535 89 88  0 
-89 -535  0 
-88 -535  0 
-540 539 100  0 
-539 540  0 
-100 540  0 
-539 -90 538  0 
90 539  0 
-538 539  0 
538 89 88  0 
-89 -538  0 
-88 -538  0 
-542 541 101  0 
-541 542  0 
-101 542  0 
-541 233 -234  0 
-233 541  0 
234 541  0 
-544 543 96  0 
-543 544  0 
-96 544  0 
-543 -233 -234  0 
233 543  0 
234 543  0 
-545 -101 -102  0 
101 545  0 
102 545  0 
-905 548 904  0 
-548 905  0 
-904 905  0 
548 -546 -547  0 
546 -548  0 
547 -548  0 
-546 -97 235 -236  0 
97 546  0 
-235 546  0 
236 546  0 
-547 -96 -235 -236  0 
96 547  0 
235 547  0 
236 547  0 
904 -551 -557 -560 -563 -565 -566 -903  0 
551 -904  0 
557 -904  0 
560 -904  0 
563 -904  0 
565 -904  0 
566 -904  0 
903 -904  0 
-551 550 112  0 
-550 551  0 
-112 551  0 
-550 -100 549  0 
100 550  0 
-549 550  0 
549 97 96  0 
-97 -549  0 
-96 -549  0 
-557 553 556  0 
-553 557  0 
-556 557  0 
-553 -99 552  0 
99 553  0 
-552 553  0 
552 97 96  0 
-97 -552  0 
-96 -552  0 
556 -109 -554 -555  0 
109 -556  0 
554 -556  0 
555 -556  0 
-554 104 107  0 
-104 554  0 
-107 554  0 
-555 105 106 112 110  0 
-105 555  0 
-106 555  0 
-112 555  0 
-110 555  0 
-560 559 104  0 
-559 560  0 
-104 560  0 
-559 -98 558  0 
98 559  0 
-558 559  0 
558 97 96  0 
-97 -558  0 
-96 -558  0 
-563 561 562  0 
-561 563  0 
-562 563  0 
-561 235 -236  0 
-235 561  0 
236 561  0 
562 -108 -111  0 
108 -562  0 
111 -562  0 
-565 564 103  0 
-564 565  0 
-103 565  0 
-564 -235 -236  0 
235 564  0 
236 564  0 
-566 -111 -112  0 
111 566  0 
112 566  0 
-903 570 902  0 
-570 903  0 
-902 903  0 
570 -567 -568 -569  0 
567 -570  0 
568 -570  0 
569 -570  0 
-567 -105 -237 238  0 
105 567  0 
237 567  0 
-238 567  0 
-568 -104 237 -238  0 
104 568  0 
-237 568  0 
238 568  0 
-569 -103 -237 -238  0 
103 569  0 
237 569  0 
238 569  0 
902 -573 -579 -582 -585 -588 -591 -593 -595 -596 -901  0 
573 -902  0 
579 -902  0 
582 -902  0 
585 -902  0 
588 -902  0 
591 -902  0 
593 -902  0 
595 -902  0 
596 -902  0 
901 -902  0 
-573 572 122  0 
-572 573  0 
-122 573  0 
-572 -110 571  0 
110 572  0 
-571 572  0 
571 105 104 103  0 
-105 -571  0 
-104 -571  0 
-103 -571  0 
-579 575 578  0 
-575 579  0 
-578 579  0 
-575 -109 574  0 
109 575  0 
-574 575  0 
574 105 104 103  0 
-105 -574  0 
-104 -574  0 
-103 -574  0 
578 -119 -576 -577  0 
119 -578  0 
576 -578  0 
577 -578  0 
-576 114 117  0 
-114 576  0 
-117 576  0 
-577 115 116 122 120  0 
-115 577  0 
-116 577  0 
-122 577  0 
-120 577  0 
-582 581 121 120  0 
-581 582  0 
-121 582  0 
-120 582  0 
-581 -108 580  0 
108 581  0 
-580 581  0 
580 105 104 103  0 
-105 -580  0 
-104 -580  0 
-103 -580  0 
-585 584 120  0 
-584 585  0 
-120 585  0 
-584 -107 583  0 
107 584  0 
-583 584  0 
583 105 104 103  0 
-105 -583  0 
-104 -583  0 
-103 -583  0 
-588 587 114  0 
-587 588  0 
-114 588  0 
-587 -106 586  0 
106 587  0 
-586 587  0 
586 105 104 103  0 
-105 -586  0 
-104 -586  0 
-103 -586  0 
-591 589 590  0 
-589 591  0 
-590 591  0 
-589 -237 238  0 
237 589  0 
-238 589  0 
590 -118 -121  0 
118 -590  0 
121 -590  0 
-593 592 121  0 
-592 593  0 
-121 593  0 
-592 237 -238  0 
-237 592  0 
238 592  0 
-595 594 113  0 
-594 595  0 
-113 595  0 
-594 -237 -238  0 
237 594  0 
238 594  0 
-596 -121 -122  0 
121 596  0 
122 596  0 
-901 600 900  0 
-600 901  0 
-900 901  0 
600 -597 -598 -599  0 
597 -600  0 
598 -600  0 
599 -600  0 
-597 -115 -239 240  0 
115 597  0 
239 597  0 
-240 597  0 
-598 -114 239 -240  0 
114 598  0 
-239 598  0 
240 598  0 
-599 -113 -239 -240  0 
113 599  0 
239 599  0 
240 599  0 
900 -603 -609 -612 -615 -618 -621 -623 -625 -626 -899  0 
603 -900  0 
609 -900  0 
612 -900  0 
615 -900  0 
618 -900  0 
621 -900  0 
623 -900  0 
625 -900  0 
626 -900  0 
899 -900  0 
-603 602 132  0 
-602 603  0 
-132 603  0 
-602 -120 601  0 
120 602  0 
-601 602  0 
601 115 114 113  0 
-115 -601  0 
-114 -601  0 
-113 -601  0 
-609 605 608  0 
-605 609  0 
-608 609  0 
-605 -119 604  0 
119 605  0 
-604 605  0 
604 115 114 113  0 
-115 -604  0 
-114 -604  0 
-113 -604  0 
608 -129 -606 -607  0 
129 -608  0 
606 -608  0 
607 -608  0 
-606 124 127  0 
-124 606  0 
-127 606  0 
-607 125 126 132 130  0 
-125 607  0 
-126 607  0 
-132 607  0 
-130 607  0 
-612 611 131 130  0 
-611 612  0 
-131 612  0 
-130 612  0 
-611 -118 610  0 
118 611  0 
-610 611  0 
610 115 114 113  0 
-115 -610  0 
-114 -610  0 
-113 -610  0 
-615 614 130  0 
-614 615  0 
-130 615  0 
-614 -117 613  0 
117 614  0 
-613 614  0 
613 115 114 113  0 
-115 -613  0 
-114 -613  0 
-113 -613  0 
-618 617 124  0 
-617 618  0 
-124 618  0 
-617 -116 616  0 
116 617  0 
-616 617  0 
616 115 114 113  0 
-115 -616  0 
-114 -616  0 
-113 -616  0 
-621 619 620  0 
-619 621  0 
-620 621  0 
-619 -239 240  0 
239 619  0 
-240 619  0 
620 -128 -131  0 
128 -620  0 
131 -620  0 
-623 622 131  0 
-622 623  0 
-131 623  0 
-622 239 -240  0 
-239 622  0 
240 622  0 
-625 624 123  0 
-624 625  0 
-123 625  0 
-624 -239 -240  0 
239 624  0 
240 624  0 
-626 -131 -132  0 
131 626  0 
132 626  0 
-899 630 898  0 
-630 899  0 
-898 899  0 
630 -627 -628 -629  0 
627 -630  0 
628 -630  0 
629 -630  0 
-627 -125 -241 242  0 
125 627  0 
241 627  0 
-242 627  0 
-628 -124 241 -242  0 
124 628  0 
-241 628  0 
242 628  0 
-629 -123 -241 -242  0 
123 629  0 
241 629  0 
242 629  0 
898 -633 -639 -642 -645 -648 -651 -653 -655 -656 -897  0 
633 -898  0 
639 -898  0 
642 -898  0 
645 -898  0 
648 -898  0 
651 -898  0 
653 -898  0 
655 -898  0 
656 -898  0 
897 -898  0 
-633 632 142  0 
-632 633  0 
-142 633  0 
-632 -130 631  0 
130 632  0 
-631 632  0 
631 125 124 123  0 
-125 -631  0 
-124 -631  0 
-123 -631  0 
-639 635 638  0 
-635 639  0 
-638 639  0 
-635 -129 634  0 
129 635  0 
-634 635  0 
634 125 124 123  0 
-125 -634  0 
-124 -634  0 
-123 -634  0 
638 -139 -636 -637  0 
139 -638  0 
636 -638  0 
637 -638  0 
-636 134 137  0 
-134 636  0 
-137 636  0 
-637 135 136 142 140  0 
-135 637  0 
-136 637  0 
-142 637  0 
-140 637  0 
-642 641 141 140  0 
-641 642  0 
-141 642  0 
-140 642  0 
-641 -128 640  0 
128 641  0 
-640 641  0 
640 125 124 123  0 
-125 -640  0 
-124 -640  0 
-123 -640  0 
-645 644 140  0 
-644 645  0 
-140 645  0 
-644 -127 643  0 
127 644  0 
-643 644  0 
643 125 124 123  0 
-125 -643  0 
-124 -643  0 
-123 -643  0 
-648 647 134  0 
-647 648  0 
-134 648  0 
-647 -126 646  0 
126 647  0 
-646 647  0 
646 125 124 123  0 
-125 -646  0 
-124 -646  0 
-123 -646  0 
-651 649 650  0 
-649 651  0 
-650 651  0 
-649 -241 242  0 
241 649  0 
-242 649  0 
650 -138 -141  0 
138 -650  0 
141 -650  0 
-653 652 141  0 
-652 653  0 
-141 653  0 
-652 241 -242  0 
-241 652  0 
242 652  0 
-655 654 133  0 
-654 655  0 
-133 655  0 
-654 -241 -242  0 
241 654  0 
242 654  0 
-656 -141 -142  0 
141 656  0 
142 656  0 
-897 660 896  0 
-660 897  0 
-896 897  0 
660 -657 -658 -659  0 
657 -660  0 
658 -660  0 
659 -660  0 
-657 -135 -243 244  0 
135 657  0 
243 657  0 
-244 657  0 
-658 -134 243 -244  0 
134 658  0 
-243 658  0 
244 658  0 
-659 -133 -243 -244  0 
133 659  0 
243 659  0 
244 659  0 
896 -663 -669 -672 -675 -678 -681 -683 -685 -686 -895  0 
663 -896  0 
669 -896  0 
672 -896  0 
675 -896  0 
678 -896  0 
681 -896  0 
683 -896  0 
685 -896  0 
686 -896  0 
895 -896  0 
-663 662 152  0 
-662 663  0 
-152 663  0 
-662 -140 661  0 
140 662  0 
-661 662  0 
661 135 134 133  0 
-135 -661  0 
-134 -661  0 
-133 -661  0 
-669 665 668  0 
-665 669  0 
-668 669  0 
-665 -139 664  0 
139 665  0 
-664 665  0 
664 135 134 133  0 
-135 -664  0 
-134 -664  0 
-133 -664  0 
668 -149 -666 -667  0 
149 -668  0 
666 -668  0 
667 -668  0 
-666 144 147  0 
-144 666  0 
-147 666  0 
-667 145 146 152 150  0 
-145 667  0 
-146 667  0 
-152 667  0 
-150 667  0 
-672 671 151 150  0 
-671 672  0 
-151 672  0 
-150 672  0 
-671 -138 670  0 
138 671  0 
-670 671  0 
670 135 134 133  0 
-135 -670  0 
-134 -670  0 
-133 -670  0 
-675 674 150  0 
-674 675  0 
-150 675  0 
-674 -137 673  0 
137 674  0 
-673 674  0 
673 135 134 133  0 
-135 -673  0 
-134 -673  0 
-133 -673  0 
-678 677 144  0 
-677 678  0 
-144 678  0 
-677 -136 676  0 
136 677  0 
-676 677  0 
676 135 134 133  0 
-135 -676  0 
-134 -676  0 
-133 -676  0 
-681 679 680  0 
-679 681  0 
-680 681  0 
-679 -243 244  0 
243 679  0 
-244 679  0 
680 -148 -151  0 
148 -680  0 
151 -680  0 
-683 682 151  0 
-682 683  0 
-151 683  0 
-682 243 -244  0 
-243 682  0 
244 682  0 
-685 684 143  0 
-684 685  0 
-143 685  0 
-684 -243 -244  0 
243 684  0 
244 684  0 
-686 -151 -152  0 
151 686  0 
152 686  0 
-895 690 894  0 
-690 895  0 
-894 895  0 
690 -687 -688 -689  0 
687 -690  0 
688 -690  0 
689 -690  0 
-687 -145 -245 246  0 
145 687  0 
245 687  0 
-246 687  0 
-688 -144 245 -246  0 
144 688  0 
-245 688  0 
246 688  0 
-689 -143 -245 -246  0 
143 689  0 
245 689  0 
246 689  0 
894 -693 -699 -702 -705 -708 -711 -713 -715 -716 -893  0 
693 -894  0 
699 -894  0 
702 -894  0 
705 -894  0 
708 -894  0 
711 -894  0 
713 -894  0 
715 -894  0 
716 -894  0 
893 -894  0 
-693 692 162  0 
-692 693  0 
-162 693  0 
-692 -150 691  0 
150 692  0 
-691 692  0 
691 145 144 143  0 
-145 -691  0 
-144 -691  0 
-143 -691  0 
-699 695 698  0 
-695 699  0 
-698 699  0 
-695 -149 694  0 
149 695  0 
-694 695  0 
694 145 144 143  0 
-145 -694  0 
-144 -694  0 
-143 -694  0 
698 -159 -696 -697  0 
159 -698  0 
696 -698  0 
697 -698  0 
-696 154 157  0 
-154 696  0 
-157 696  0 
-697 155 156 162 160  0 
-155 697  0 
-156 697  0 
-162 697  0 
-160 697  0 
-702 701 161 160  0 
-701 702  0 
-161 702  0 
-160 702  0 
-701 -148 700  0 
148 701  0 
-700 701  0 
700 145 144 143  0 
-145 -700  0 
-144 -700  0 
-143 -700  0 
-705 704 160  0 
-704 705  0 
-160 705  0 
-704 -147 703  0 
147 704  0 
-703 704  0 
703 145 144 143  0 
-145 -703  0 
-144 -703  0 
-143 -703  0 
-708 707 154  0 
-707 708  0 
-154 708  0 
-707 -146 706  0 
146 707  0 
-706 707  0 
706 145 144 143  0 
-145 -706  0 
-144 -706  0 
-143 -706  0 
-711 709 710  0 
-709 711  0 
-710 711  0 
-709 -245 246  0 
245 709  0 
-246 709  0 
710 -158 -161  0 
158 -710  0 
161 -710  0 
-713 712 161  0 
-712 713  0 
-161 713  0 
-712 245 -246  0 
-245 712  0 
246 712  0 
-715 714 153  0 
-714 715  0 
-153 715  0 
-714 -245 -246  0 
245 714  0 
246 714  0 
-716 -161 -162  0 
161 716  0 
162 716  0 
-893 720 892  0 
-720 893  0 
-892 893  0 
720 -717 -718 -719  0 
717 -720  0 
718 -720  0 
719 -720  0 
-717 -155 -247 248  0 
155 717  0 
247 717  0 
-248 717  0 
-718 -154 247 -248  0 
154 718  0 
-247 718  0 
248 718  0 
-719 -153 -247 -248  0 
153 719  0 
247 719  0 
248 719  0 
892 -723 -729 -732 -735 -738 -741 -743 -745 -746 -891  0 
723 -892  0 
729 -892  0 
732 -892  0 
735 -892  0 
738 -892  0 
741 -892  0 
743 -892  0 
745 -892  0 
746 -892  0 
891 -892  0 
-723 722 172  0 
-722 723  0 
-172 723  0 
-722 -160 721  0 
160 722  0 
-721 722  0 
721 155 154 153  0 
-155 -721  0 
-154 -721  0 
-153 -721  0 
-729 725 728  0 
-725 729  0 
-728 729  0 
-725 -159 724  0 
159 725  0 
-724 725  0 
724 155 154 153  0 
-155 -724  0 
-154 -724  0 
-153 -724  0 
728 -169 -726 -727  0 
169 -728  0 
726 -728  0 
727 -728  0 
-726 164 167  0 
-164 726  0 
-167 726  0 
-727 165 166 172 170  0 
-165 727  0 
-166 727  0 
-172 727  0 
-170 727  0 
-732 731 171 170  0 
-731 732  0 
-171 732  0 
-170 732  0 
-731 -158 730  0 
158 731  0 
-730 731  0 
730 155 154 153  0 
-155 -730  0 
-154 -730  0 
-153 -730  0 
-735 734 170  0 
-734 735  0 
-170 735  0 
-734 -157 733  0 
157 734  0 
-733 734  0 
733 155 154 153  0 
-155 -733  0 
-154 -733  0 
-153 -733  0 
-738 737 164  0 
-737 738  0 
-164 738  0 
-737 -156 736  0 
156 737  0 
-736 737  0 
736 155 154 153  0 
-155 -736  0 
-154 -736  0 
-153 -736  0 
-741 739 740  0 
-739 741  0 
-740 741  0 
-739 -247 248  0 
247 739  0 
-248 739  0 
740 -168 -171  0 
168 -740  0 
171 -740  0 
-743 742 171  0 
-742 743  0 
-171 743  0 
-742 247 -248  0 
-247 742  0 
248 742  0 
-745 744 163  0 
-744 745  0 
-163 745  0 
-744 -247 -248  0 
247 744  0 
248 744  0 
-746 -171 -172  0 
171 746  0 
172 746  0 
-891 750 890  0 
-750 891  0 
-890 891  0 
750 -747 -748 -749  0 
747 -750  0 
748 -750  0 
749 -750  0 
-747 -165 -249 250  0 
165 747  0 
249 747  0 
-250 747  0 
-748 -164 249 -250  0 
164 748  0 
-249 748  0 
250 748  0 
-749 -163 -249 -250  0 
163 749  0 
249 749  0 
250 749  0 
890 -753 -758 -761 -764 -767 -770 -772 -774 -775 -889  0 
753 -890  0 
758 -890  0 
761 -890  0 
764 -890  0 
767 -890  0 
770 -890  0 
772 -890  0 
774 -890  0 
775 -890  0 
889 -890  0 
-753 752 180  0 
-752 753  0 
-180 753  0 
-752 -170 751  0 
170 752  0 
-751 752  0 
751 165 164 163  0 
-165 -751  0 
-164 -751  0 
-163 -751  0 
-758 755 757  0 
-755 758  0 
-757 758  0 
-755 -169 754  0 
169 755  0 
-754 755  0 
754 165 164 163  0 
-165 -754  0 
-164 -754  0 
-163 -754  0 
757 -177 -756  0 
177 -757  0 
756 -757  0 
-756 173 175  0 
-173 756  0 
-175 756  0 
-761 760 179 178  0 
-760 761  0 
-179 761  0 
-178 761  0 
-760 -168 759  0 
168 760  0 
-759 760  0 
759 165 164 163  0 
-165 -759  0 
-164 -759  0 
-163 -759  0 
-764 763 178  0 
-763 764  0 
-178 764  0 
-763 -167 762  0 
167 763  0 
-762 763  0 
762 165 164 163  0 
-165 -762  0 
-164 -762  0 
-163 -762  0 
-767 766 173  0 
-766 767  0 
-173 767  0 
-766 -166 765  0 
166 766  0 
-765 766  0 
765 165 164 163  0 
-165 -765  0 
-164 -765  0 
-163 -765  0 
-770 768 769  0 
-768 770  0 
-769 770  0 
-768 -249 250  0 
249 768  0 
-250 768  0 
769 -176 -179  0 
176 -769  0 
179 -769  0 
-772 771 179  0 
-771 772  0 
-179 772  0 
-771 249 -250  0 
-249 771  0 
250 771  0 
-774 773 174  0 
-773 774  0 
-174 774  0 
-773 -249 -250  0 
249 773  0 
250 773  0 
-775 -179 -180  0 
179 775  0 
180 775  0 
-889 778 888  0 
-778 889  0 
-888 889  0 
778 -776 -777  0 
776 -778  0 
777 -778  0 
-776 -174 251 -252  0 
174 776  0 
-251 776  0 
252 776  0 
-777 -173 -251 -252  0 
173 777  0 
251 777  0 
252 777  0 
888 -781 -788 -791 -794 -797 -799 -800 -887  0 
781 -888  0 
788 -888  0 
791 -888  0 
794 -888  0 
797 -888  0 
799 -888  0 
800 -888  0 
887 -888  0 
-781 780 192  0 
-780 781  0 
-192 781  0 
-780 -178 779  0 
178 780  0 
-779 780  0 
779 174 173  0 
-174 -779  0 
-173 -779  0 
-788 783 787  0 
-783 788  0 
-787 788  0 
-783 -177 782  0 
177 783  0 
-782 783  0 
782 174 173  0 
-174 -782  0 
-173 -782  0 
787 -187 -784 -785 -786  0 
187 -787  0 
784 -787  0 
785 -787  0 
786 -787  0 
-784 183 185 189 191 190  0 
-183 784  0 
-185 784  0 
-189 784  0 
-191 784  0 
-190 784  0 
-785 182 184 192 190  0 
-182 785  0 
-184 785  0 
-192 785  0 
-190 785  0 
-786 182 186  0 
-182 786  0 
-186 786  0 
-791 790 191 190  0 
-790 791  0 
-191 791  0 
-190 791  0 
-790 -176 789  0 
176 790  0 
-789 790  0 
789 174 173  0 
-174 -789  0 
-173 -789  0 
-794 793 190  0 
-793 794  0 
-190 794  0 
-793 -175 792  0 
175 793  0 
-792 793  0 
792 174 173  0 
-174 -792  0 
-173 -792  0 
-797 795 796  0 
-795 797  0 
-796 797  0 
-795 251 -252  0 
-251 795  0 
252 795  0 
796 -188 -181 -191  0 
188 -796  0 
181 -796  0 
191 -796  0 
-799 798 191  0 
-798 799  0 
-191 799  0 
-798 -251 -252  0 
251 798  0 
252 798  0 
-800 -191 -192  0 
191 800  0 
192 800  0 
-887 804 886  0 
-804 887  0 
-886 887  0 
804 -801 -802 -803  0 
801 -804  0 
802 -804  0 
803 -804  0 
-801 -183 -253 254  0 
183 801  0 
253 801  0 
-254 801  0 
-802 -182 253 -254  0 
182 802  0 
-253 802  0 
254 802  0 
-803 -181 -253 -254  0 
181 803  0 
253 803  0 
254 803  0 
886 -807 -810 -813 -816 -819 -822 -825 -828 -831 -833 -834 -885  0 
807 -886  0 
810 -886  0 
813 -886  0 
816 -886  0 
819 -886  0 
822 -886  0 
825 -886  0 
828 -886  0 
831 -886  0 
833 -886  0 
834 -886  0 
885 -886  0 
-807 806 201  0 
-806 807  0 
-201 807  0 
-806 -190 805  0 
190 806  0 
-805 806  0 
805 183 182 181  0 
-183 -805  0 
-182 -805  0 
-181 -805  0 
-810 809 200 199  0 
-809 810  0 
-200 810  0 
-199 810  0 
-809 -189 808  0 
189 809  0 
-808 809  0 
808 183 182 181  0 
-183 -808  0 
-182 -808  0 
-181 -808  0 
-813 812 194 201  0 
-812 813  0 
-194 813  0 
-201 813  0 
-812 -188 811  0 
188 812  0 
-811 812  0 
811 183 182 181  0 
-183 -811  0 
-182 -811  0 
-181 -811  0 
-816 815 193 195  0 
-815 816  0 
-193 816  0 
-195 816  0 
-815 -187 814  0 
187 815  0 
-814 815  0 
814 183 182 181  0 
-183 -814  0 
-182 -814  0 
-181 -814  0 
-819 818 196  0 
-818 819  0 
-196 819  0 
-818 -186 817  0 
186 818  0 
-817 818  0 
817 183 182 181  0 
-183 -817  0 
-182 -817  0 
-181 -817  0 
-822 821 194  0 
-821 822  0 
-194 822  0 
-821 -185 820  0 
185 821  0 
-820 821  0 
820 183 182 181  0 
-183 -820  0 
-182 -820  0 
-181 -820  0 
-825 824 193  0 
-824 825  0 
-193 825  0 
-824 -184 823  0 
184 824  0 
-823 824  0 
823 183 182 181  0 
-183 -823  0 
-182 -823  0 
-181 -823  0 
-828 826 827  0 
-826 828  0 
-827 828  0 
-826 -253 254  0 
253 826  0 
-254 826  0 
827 -198 -201 -193  0 
198 -827  0 
201 -827  0 
193 -827  0 
-831 829 830  0 
-829 831  0 
-830 831  0 
-829 253 -254  0 
-253 829  0 
254 829  0 
830 -197 -200  0 
197 -830  0 
200 -830  0 
-833 832 199  0 
-832 833  0 
-199 833  0 
-832 -253 -254  0 
253 832  0 
254 832  0 
-834 -200 -201  0 
200 834  0 
201 834  0 
-885 837 884  0 
-837 885  0 
-884 885  0 
837 -835 -836  0 
835 -837  0 
836 -837  0 
-835 -194 255 -256  0 
194 835  0 
-255 835  0 
256 835  0 
-836 -193 -255 -256  0 
193 836  0 
255 836  0 
256 836  0 
884 -840 -844 -847 -850 -853 -856 -858 -859 -883  0 
840 -884  0 
844 -884  0 
847 -884  0 
850 -884  0 
853 -884  0 
856 -884  0 
858 -884  0 
859 -884  0 
883 -884  0 
-840 839 207  0 
-839 840  0 
-207 840  0 
-839 -199 838  0 
199 839  0 
-838 839  0 
838 194 193  0 
-194 -838  0 
-193 -838  0 
-844 842 843 204  0 
-842 844  0 
-843 844  0 
-204 844  0 
-842 -198 841  0 
198 842  0 
-841 842  0 
841 194 193  0 
-194 -841  0 
-193 -841  0 
843 -207 -202  0 
207 -843  0 
202 -843  0 
-847 846 206 205  0 
-846 847  0 
-206 847  0 
-205 847  0 
-846 -197 845  0 
197 846  0 
-845 846  0 
845 194 193  0 
-194 -845  0 
-193 -845  0 
-850 849 203 207  0 
-849 850  0 
-203 850  0 
-207 850  0 
-849 -196 848  0 
196 849  0 
-848 849  0 
848 194 193  0 
-194 -848  0 
-193 -848  0 
-853 852 205  0 
-852 853  0 
-205 853  0 
-852 -195 851  0 
195 852  0 
-851 852  0 
851 194 193  0 
-194 -851  0 
-193 -851  0 
-856 854 855  0 
-854 856  0 
-855 856  0 
-854 255 -256  0 
-255 854  0 
256 854  0 
855 -207 -202  0 
207 -855  0 
202 -855  0 
-858 857 206  0 
-857 858  0 
-206 858  0 
-857 -255 -256  0 
255 857  0 
256 857  0 
-859 -206 -207  0 
206 859  0 
207 859  0 
-883 862 882  0 
-862 883  0 
-882 883  0 
862 -860 -861  0 
860 -862  0 
861 -862  0 
-860 -203 257 -258  0 
203 860  0 
-257 860  0 
258 860  0 
-861 -202 -257 -258  0 
202 861  0 
257 861  0 
258 861  0 
882 -865 -868 -871 -873 -874 -881  0 
865 -882  0 
868 -882  0 
871 -882  0 
873 -882  0 
874 -882  0 
881 -882  0 
-865 864 211  0 
-864 865  0 
-211 865  0 
-864 -205 863  0 
205 864  0 
-863 864  0 
863 203 202  0 
-203 -863  0 
-202 -863  0 
-868 867 210 209  0 
-867 868  0 
-210 868  0 
-209 868  0 
-867 -204 866  0 
204 867  0 
-866 867  0 
866 203 202  0 
-203 -866  0 
-202 -866  0 
-871 869 870  0 
-869 871  0 
-870 871  0 
-869 257 -258  0 
-257 869  0 
258 869  0 
870 -211 -208  0 
211 -870  0 
208 -870  0 
-873 872 210  0 
-872 873  0 
-210 873  0 
-872 -257 -258  0 
257 872  0 
258 872  0 
-874 -210 -211  0 
210 874  0 
211 874  0 
-881 875 880  0 
-875 881  0 
-880 881  0 
-875 -259 -208  0 
259 875  0 
208 875  0 
880 -877 -878 -879  0 
877 -880  0 
878 -880  0 
879 -880  0 
-877 876 213  0 
-876 877  0 
-213 877  0 
-876 -209 -208  0 
209 876  0 
208 876  0 
-878 -259 212  0 
259 878  0 
-212 878  0 
-879 -212 -213  0 
212 879  0 
213 879  0 
